N = 15;
MinK = 8;
Capacity = 35;

X = array1d(0..15, [30, 37, 49, 52, 31, 52, 42, 52, 57, 62, 42, 27, 43, 58, 58, 37]);
Y = array1d(0..15, [40, 52, 49, 64, 62, 33, 41, 41, 58, 42, 57, 68, 67, 48, 27, 69]);

Demands = [19, 30, 16, 23, 11, 31, 15, 28, 8, 8, 7, 14, 6, 19, 11];
